NAME: tsp20_batch1_uniform.tsp
TYPE: TSP
DIMENSION: 20
EDGE_WEIGHT_TYPE: EUC_2D
NODE_COORD_SECTION
1 15.754216420265788 42.729550219045564
2 1.9060502071023389 20.637401515189868
3 60.28925409907245 31.155499524628137
4 33.14823728281524 62.82590467517326
5 46.79933913306675 2.533549239749966
6 93.09113696460803 32.29740200222855
7 89.67296249811334 32.02883308778562
8 30.7680977288906 87.80242621943168
9 13.415944021465565 17.79206856699098
10 3.1936956145817486 72.20832130351148
11 44.016526204431784 60.57571432168385
12 39.86463197163073 50.86798937324134
13 95.36210858741218 0.15892707498824654
14 17.63892253456305 43.682082846468084
15 31.69691761211919 95.0500905999773
16 48.20439546084748 72.71970919574451
17 88.8857364989141 38.373129207071145
18 51.187756045398146 9.300090847650178
19 40.93601896987781 4.140792490808442
20 96.6995523837216 90.53501320334374
EOF
